c A SAT instance generated from a 5-CNF formula that had 10 clauses and 500 variables
p cnf 500 10
408 177 454 466 -264 0
-235 -21 276 85 -203 0
-481 -203 -468 -37 299 0
-143 327 -448 -56 193 0
-104 117 -402 -8 17 0
406 -118 -268 60 485 0
-264 -105 142 286 1 0
-44 269 114 496 -196 0
-188 -365 -161 285 -155 0
-497 262 -375 -276 378 0
